(set-info :smt-lib-version 2.6)
(set-logic UF)
(set-info :source |Benchmarks from the paper: "Extending Sledgehammer with SMT Solvers" by Jasmin Blanchette, Sascha Bohme, and Lawrence C. Paulson, CADE 2011.  Translated to SMT2 by Andrew Reynolds and Morgan Deters.|)
(set-info :category "industrial")
(set-info :status unsat)
(declare-sort S1 0)
(declare-sort S2 0)
(declare-sort S3 0)
(declare-sort S4 0)
(declare-sort S5 0)
(declare-sort S6 0)
(declare-sort S7 0)
(declare-sort S8 0)
(declare-sort S9 0)
(declare-sort S10 0)
(declare-sort S11 0)
(declare-sort S12 0)
(declare-sort S13 0)
(declare-sort S14 0)
(declare-sort S15 0)
(declare-sort S16 0)
(declare-sort S17 0)
(declare-sort S18 0)
(declare-sort S19 0)
(declare-sort S20 0)
(declare-sort S21 0)
(declare-sort S22 0)
(declare-sort S23 0)
(declare-sort S24 0)
(declare-sort S25 0)
(declare-sort S26 0)
(declare-sort S27 0)
(declare-sort S28 0)
(declare-sort S29 0)
(declare-sort S30 0)
(declare-sort S31 0)
(declare-sort S32 0)
(declare-sort S33 0)
(declare-sort S34 0)
(declare-sort S35 0)
(declare-sort S36 0)
(declare-sort S37 0)
(declare-sort S38 0)
(declare-sort S39 0)
(declare-sort S40 0)
(declare-sort S41 0)
(declare-sort S42 0)
(declare-sort S43 0)
(declare-sort S44 0)
(declare-sort S45 0)
(declare-sort S46 0)
(declare-sort S47 0)
(declare-sort S48 0)
(declare-sort S49 0)
(declare-sort S50 0)
(declare-sort S51 0)
(declare-sort S52 0)
(declare-sort S53 0)
(declare-sort S54 0)
(declare-sort S55 0)
(declare-sort S56 0)
(declare-sort S57 0)
(declare-sort S58 0)
(declare-fun f1 () S1)
(declare-fun f2 () S1)
(declare-fun f3 (S2 S3) S1)
(declare-fun f4 (S4 S5) S2)
(declare-fun f5 () S4)
(declare-fun f6 () S5)
(declare-fun f7 (S6 S7) S3)
(declare-fun f8 (S8 S9) S6)
(declare-fun f9 (S10 S7) S8)
(declare-fun f10 () S10)
(declare-fun f11 () S7)
(declare-fun f12 (S11 S12) S9)
(declare-fun f13 () S11)
(declare-fun f14 () S12)
(declare-fun f15 () S7)
(declare-fun f16 (S14 S3) S5)
(declare-fun f17 (S15 S13) S14)
(declare-fun f18 () S15)
(declare-fun f19 (S16 S2) S1)
(declare-fun f20 (S17 S2) S16)
(declare-fun f21 () S17)
(declare-fun f22 (S18 S3) S16)
(declare-fun f23 () S18)
(declare-fun f24 () S14)
(declare-fun f25 (S21 S20) S1)
(declare-fun f26 (S7 S19) S21)
(declare-fun f27 (S22 S5) S21)
(declare-fun f28 (S23 S20) S22)
(declare-fun f29 (S24 S9) S23)
(declare-fun f30 () S24)
(declare-fun f31 () S25)
(declare-fun f32 (S26 S9) S5)
(declare-fun f33 () S26)
(declare-fun f34 () S26)
(declare-fun f35 (S27 S1) S5)
(declare-fun f36 () S27)
(declare-fun f37 (S28 S5) S5)
(declare-fun f38 () S28)
(declare-fun f39 () S27)
(declare-fun f40 () S9)
(declare-fun f41 () S28)
(declare-fun f42 (S31 S30) S9)
(declare-fun f43 (S32 S29) S31)
(declare-fun f44 () S32)
(declare-fun f45 (S33 S12) S31)
(declare-fun f46 (S34 S29) S33)
(declare-fun f47 () S34)
(declare-fun f48 (S35 S9) S1)
(declare-fun f49 () S35)
(declare-fun f50 (S36 S5) S20)
(declare-fun f51 (S37 S29) S36)
(declare-fun f52 (S38 S20) S37)
(declare-fun f53 () S38)
(declare-fun f54 (S30 S20) S5)
(declare-fun f55 (S39 S20) S21)
(declare-fun f56 (S40 S9) S39)
(declare-fun f57 () S40)
(declare-fun f58 (S41 S9) S9)
(declare-fun f59 (S42 S9) S41)
(declare-fun f60 () S42)
(declare-fun f61 (S43 S21) S42)
(declare-fun f62 () S43)
(declare-fun f63 (S44 S45) S9)
(declare-fun f64 () S44)
(declare-fun f65 (S46 S12) S45)
(declare-fun f66 () S46)
(declare-fun f67 (S48 S30) S41)
(declare-fun f68 (S49 S47) S48)
(declare-fun f69 () S49)
(declare-fun f70 () S28)
(declare-fun f71 () S45)
(declare-fun f72 (S50 S9) S45)
(declare-fun f73 () S50)
(declare-fun f74 (S51 S21) S41)
(declare-fun f75 () S51)
(declare-fun f76 () S1)
(declare-fun f77 (S52 S26) S53)
(declare-fun f78 () S52)
(declare-fun f79 (S53 S45) S5)
(declare-fun f80 () S53)
(declare-fun f81 (S54 S5) S1)
(declare-fun f82 (S55 S5) S28)
(declare-fun f83 () S55)
(declare-fun f84 (S56 S25) S25)
(declare-fun f85 (S57 S25) S56)
(declare-fun f86 () S57)
(declare-fun f87 (S58 S45) S1)
(declare-fun f88 () S58)
(assert (not (= f1 f2)))
(assert (not (= (f3 (f4 f5 f6) (f7 (f8 (f9 f10 f11) (f12 f13 f14)) f15)) f1)))
(assert (forall ((?v0 S7) (?v1 S9) (?v2 S7) (?v3 S7) (?v4 S9) (?v5 S7)) (= (= (f7 (f8 (f9 f10 ?v0) ?v1) ?v2) (f7 (f8 (f9 f10 ?v3) ?v4) ?v5)) (and (= ?v0 ?v3) (and (= ?v1 ?v4) (= ?v2 ?v5))))))
(assert (forall ((?v0 S13) (?v1 S7) (?v2 S9) (?v3 S7)) (= (f16 (f17 f18 ?v0) (f7 (f8 (f9 f10 ?v1) ?v2) ?v3)) f6)))
(assert (forall ((?v0 S2) (?v1 S2)) (= (= (f19 (f20 f21 ?v0) ?v1) f1) (forall ((?v2 S5)) (=> (forall ((?v3 S3)) (=> (= (f19 (f22 f23 ?v3) ?v0) f1) (= (f3 (f4 f5 ?v2) ?v3) f1))) (forall ((?v3 S3)) (=> (= (f19 (f22 f23 ?v3) ?v1) f1) (= (f3 (f4 f5 ?v2) ?v3) f1))))))))
(assert (forall ((?v0 S7) (?v1 S9) (?v2 S7)) (= (f16 f24 (f7 (f8 (f9 f10 ?v0) ?v1) ?v2)) f6)))
(assert (forall ((?v0 S3)) (=> (forall ((?v1 S7) (?v2 S9) (?v3 S7)) (=> (= ?v0 (f7 (f8 (f9 f10 ?v1) ?v2) ?v3)) false)) false)))
(assert (forall ((?v0 S12) (?v1 S12)) (= (= (f12 f13 ?v0) (f12 f13 ?v1)) (= ?v0 ?v1))))
(assert (forall ((?v0 S5) (?v1 S7) (?v2 S9) (?v3 S7)) (= (= (f3 (f4 f5 ?v0) (f7 (f8 (f9 f10 ?v1) ?v2) ?v3)) f1) (forall ((?v4 S19) (?v5 S20)) (=> (= (f25 (f26 ?v1 ?v4) ?v5) f1) (forall ((?v6 S20)) (=> (= (f25 (f27 (f28 (f29 f30 ?v2) ?v5) ?v0) ?v6) f1) (= (f25 (f26 ?v3 ?v4) ?v6) f1))))))))
(assert (forall ((?v0 S5)) (= (= f6 ?v0) (= ?v0 f6))))
(assert (forall ((?v0 S25)) (= (= f31 ?v0) (= ?v0 f31))))
(assert (forall ((?v0 S12)) (= (f32 f33 (f12 f13 ?v0)) f6)))
(assert (forall ((?v0 S12)) (= (f32 f34 (f12 f13 ?v0)) f6)))
(assert (= (f35 f36 f1) f6))
(assert (= (f35 f36 f2) f6))
(assert (= (f37 f38 f6) f6))
(assert (forall ((?v0 S1)) (= (f35 f39 ?v0) f6)))
(assert (= (f35 f39 f2) f6))
(assert (= (f35 f39 f1) f6))
(assert (= (f32 f34 f40) f6))
(assert (= (f32 f33 f40) f6))
(assert (= (f37 f41 f6) f6))
(assert (forall ((?v0 S29) (?v1 S30)) (= (f32 f33 (f42 (f43 f44 ?v0) ?v1)) f6)))
(assert (forall ((?v0 S29) (?v1 S30)) (= (f32 f34 (f42 (f43 f44 ?v0) ?v1)) f6)))
(assert (forall ((?v0 S29) (?v1 S12) (?v2 S30)) (= (f32 f33 (f42 (f45 (f46 f47 ?v0) ?v1) ?v2)) f6)))
(assert (forall ((?v0 S29) (?v1 S12) (?v2 S30)) (= (f32 f34 (f42 (f45 (f46 f47 ?v0) ?v1) ?v2)) f6)))
(assert (forall ((?v0 S29) (?v1 S30)) (not (= f40 (f42 (f43 f44 ?v0) ?v1)))))
(assert (forall ((?v0 S29) (?v1 S12) (?v2 S30)) (not (= f40 (f42 (f45 (f46 f47 ?v0) ?v1) ?v2)))))
(assert (forall ((?v0 S29) (?v1 S30)) (not (= (f42 (f43 f44 ?v0) ?v1) f40))))
(assert (forall ((?v0 S29) (?v1 S30) (?v2 S29) (?v3 S12) (?v4 S30)) (not (= (f42 (f43 f44 ?v0) ?v1) (f42 (f45 (f46 f47 ?v2) ?v3) ?v4)))))
(assert (forall ((?v0 S29) (?v1 S12) (?v2 S30)) (not (= (f42 (f45 (f46 f47 ?v0) ?v1) ?v2) f40))))
(assert (forall ((?v0 S29) (?v1 S12) (?v2 S30) (?v3 S29) (?v4 S30)) (not (= (f42 (f45 (f46 f47 ?v0) ?v1) ?v2) (f42 (f43 f44 ?v3) ?v4)))))
(assert (forall ((?v0 S29) (?v1 S30) (?v2 S29) (?v3 S30)) (= (= (f42 (f43 f44 ?v0) ?v1) (f42 (f43 f44 ?v2) ?v3)) (and (= ?v0 ?v2) (= ?v1 ?v3)))))
(assert (forall ((?v0 S29) (?v1 S12) (?v2 S30) (?v3 S29) (?v4 S12) (?v5 S30)) (= (= (f42 (f45 (f46 f47 ?v0) ?v1) ?v2) (f42 (f45 (f46 f47 ?v3) ?v4) ?v5)) (and (= ?v0 ?v3) (and (= ?v1 ?v4) (= ?v2 ?v5))))))
(assert (forall ((?v0 S5)) (= (f37 f41 ?v0) ?v0)))
(assert (forall ((?v0 S12) (?v1 S29) (?v2 S30)) (not (= (f12 f13 ?v0) (f42 (f43 f44 ?v1) ?v2)))))
(assert (forall ((?v0 S12) (?v1 S29) (?v2 S12) (?v3 S30)) (not (= (f12 f13 ?v0) (f42 (f45 (f46 f47 ?v1) ?v2) ?v3)))))
(assert (forall ((?v0 S29) (?v1 S30) (?v2 S12)) (not (= (f42 (f43 f44 ?v0) ?v1) (f12 f13 ?v2)))))
(assert (forall ((?v0 S29) (?v1 S12) (?v2 S30) (?v3 S12)) (not (= (f42 (f45 (f46 f47 ?v0) ?v1) ?v2) (f12 f13 ?v3)))))
(assert (forall ((?v0 S12)) (not (= f40 (f12 f13 ?v0)))))
(assert (forall ((?v0 S12)) (not (= (f12 f13 ?v0) f40))))
(assert (forall ((?v0 S20) (?v1 S5) (?v2 S20)) (=> (= (f25 (f27 (f28 (f29 f30 f40) ?v0) ?v1) ?v2) f1) (=> (=> (= ?v2 ?v0) false) false))))
(assert (forall ((?v0 S20) (?v1 S5)) (= (f25 (f27 (f28 (f29 f30 f40) ?v0) ?v1) ?v0) f1)))
(assert (forall ((?v0 S29) (?v1 S12) (?v2 S30)) (=> (= (f48 f49 (f42 (f45 (f46 f47 ?v0) ?v1) ?v2)) f1) (=> (=> (= (f48 f49 (f12 f13 ?v1)) f1) false) false))))
(assert (forall ((?v0 S12) (?v1 S29) (?v2 S30)) (=> (= (f48 f49 (f12 f13 ?v0)) f1) (= (f48 f49 (f42 (f45 (f46 f47 ?v1) ?v0) ?v2)) f1))))
(assert (forall ((?v0 S29) (?v1 S30) (?v2 S20) (?v3 S5) (?v4 S20)) (=> (= (f25 (f27 (f28 (f29 f30 (f42 (f43 f44 ?v0) ?v1)) ?v2) ?v3) ?v4) f1) (=> (=> (= ?v4 (f50 (f51 (f52 f53 ?v2) ?v0) (f54 ?v1 ?v2))) false) false))))
(assert (forall ((?v0 S29) (?v1 S30) (?v2 S20) (?v3 S5)) (= (f25 (f27 (f28 (f29 f30 (f42 (f43 f44 ?v0) ?v1)) ?v2) ?v3) (f50 (f51 (f52 f53 ?v2) ?v0) (f54 ?v1 ?v2))) f1)))
(assert (forall ((?v0 S29) (?v1 S30)) (=> (= (f48 f49 (f42 (f43 f44 ?v0) ?v1)) f1) (=> false false))))
(assert (=> (= (f48 f49 f40) f1) (=> false false)))
(assert (forall ((?v0 S29) (?v1 S30)) (= (f48 f49 (f42 (f43 f44 ?v0) ?v1)) f1)))
(assert (= (f48 f49 f40) f1))
(assert (forall ((?v0 S9) (?v1 S20) (?v2 S5) (?v3 S20) (?v4 S9) (?v5 S20) (?v6 S5) (?v7 S20)) (=> (= (f25 (f27 (f28 (f29 f30 ?v0) ?v1) ?v2) ?v3) f1) (=> (= (f25 (f27 (f28 (f29 f30 ?v4) ?v5) ?v6) ?v7) f1) (exists ((?v8 S5)) (and (= (f25 (f27 (f28 (f29 f30 ?v0) ?v1) ?v8) ?v3) f1) (= (f25 (f27 (f28 (f29 f30 ?v4) ?v5) ?v8) ?v7) f1)))))))
(assert (forall ((?v0 S29) (?v1 S30) (?v2 S20) (?v3 S20)) (=> (= (f25 (f55 (f56 f57 (f42 (f43 f44 ?v0) ?v1)) ?v2) ?v3) f1) (=> (=> (= ?v3 (f50 (f51 (f52 f53 ?v2) ?v0) (f54 ?v1 ?v2))) false) false))))
(assert (forall ((?v0 S29) (?v1 S30) (?v2 S20)) (= (f25 (f55 (f56 f57 (f42 (f43 f44 ?v0) ?v1)) ?v2) (f50 (f51 (f52 f53 ?v2) ?v0) (f54 ?v1 ?v2))) f1)))
(assert (forall ((?v0 S9) (?v1 S9)) (=> (= (f48 f49 (f58 (f59 f60 ?v0) ?v1)) f1) (=> (=> (= (f48 f49 ?v0) f1) (=> (= (f48 f49 ?v1) f1) false)) false))))
(assert (forall ((?v0 S9) (?v1 S20) (?v2 S5) (?v3 S20) (?v4 S9) (?v5 S20)) (=> (= (f25 (f27 (f28 (f29 f30 ?v0) ?v1) ?v2) ?v3) f1) (=> (= (f25 (f27 (f28 (f29 f30 ?v4) ?v3) ?v2) ?v5) f1) (= (f25 (f27 (f28 (f29 f30 (f58 (f59 f60 ?v0) ?v4)) ?v1) ?v2) ?v5) f1)))))
(assert (forall ((?v0 S21) (?v1 S9) (?v2 S9)) (=> (= (f48 f49 (f58 (f59 (f61 f62 ?v0) ?v1) ?v2)) f1) (=> (=> (= (f48 f49 ?v1) f1) (=> (= (f48 f49 ?v2) f1) false)) false))))
(assert (forall ((?v0 S21) (?v1 S20) (?v2 S9) (?v3 S5) (?v4 S20) (?v5 S9)) (=> (not (= (f25 ?v0 ?v1) f1)) (=> (= (f25 (f27 (f28 (f29 f30 ?v2) ?v1) ?v3) ?v4) f1) (= (f25 (f27 (f28 (f29 f30 (f58 (f59 (f61 f62 ?v0) ?v5) ?v2)) ?v1) ?v3) ?v4) f1)))))
(assert (forall ((?v0 S21) (?v1 S20) (?v2 S9) (?v3 S5) (?v4 S20) (?v5 S9)) (=> (= (f25 ?v0 ?v1) f1) (=> (= (f25 (f27 (f28 (f29 f30 ?v2) ?v1) ?v3) ?v4) f1) (= (f25 (f27 (f28 (f29 f30 (f58 (f59 (f61 f62 ?v0) ?v2) ?v5)) ?v1) ?v3) ?v4) f1)))))
(assert (forall ((?v0 S21) (?v1 S9) (?v2 S9) (?v3 S20) (?v4 S5) (?v5 S20)) (let ((?v_0 (= (f25 ?v0 ?v3) f1))) (=> (= (f25 (f27 (f28 (f29 f30 (f58 (f59 (f61 f62 ?v0) ?v1) ?v2)) ?v3) ?v4) ?v5) f1) (=> (=> ?v_0 (=> (= (f25 (f27 (f28 (f29 f30 ?v1) ?v3) ?v4) ?v5) f1) false)) (=> (=> (not ?v_0) (=> (= (f25 (f27 (f28 (f29 f30 ?v2) ?v3) ?v4) ?v5) f1) false)) false))))))
(assert (forall ((?v0 S21) (?v1 S20) (?v2 S9) (?v3 S20) (?v4 S9)) (=> (not (= (f25 ?v0 ?v1) f1)) (=> (= (f25 (f55 (f56 f57 ?v2) ?v1) ?v3) f1) (= (f25 (f55 (f56 f57 (f58 (f59 (f61 f62 ?v0) ?v4) ?v2)) ?v1) ?v3) f1)))))
(assert (forall ((?v0 S21) (?v1 S20) (?v2 S9) (?v3 S20) (?v4 S9)) (=> (= (f25 ?v0 ?v1) f1) (=> (= (f25 (f55 (f56 f57 ?v2) ?v1) ?v3) f1) (= (f25 (f55 (f56 f57 (f58 (f59 (f61 f62 ?v0) ?v2) ?v4)) ?v1) ?v3) f1)))))
(assert (forall ((?v0 S21) (?v1 S9) (?v2 S9) (?v3 S20) (?v4 S20)) (let ((?v_0 (= (f25 ?v0 ?v3) f1))) (=> (= (f25 (f55 (f56 f57 (f58 (f59 (f61 f62 ?v0) ?v1) ?v2)) ?v3) ?v4) f1) (=> (=> ?v_0 (=> (= (f25 (f55 (f56 f57 ?v1) ?v3) ?v4) f1) false)) (=> (=> (not ?v_0) (=> (= (f25 (f55 (f56 f57 ?v2) ?v3) ?v4) f1) false)) false))))))
(assert (forall ((?v0 S9) (?v1 S20) (?v2 S20) (?v3 S9) (?v4 S20)) (=> (= (f25 (f55 (f56 f57 ?v0) ?v1) ?v2) f1) (=> (= (f25 (f55 (f56 f57 ?v3) ?v2) ?v4) f1) (= (f25 (f55 (f56 f57 (f58 (f59 f60 ?v0) ?v3)) ?v1) ?v4) f1)))))
(assert (forall ((?v0 S20) (?v1 S20)) (=> (= (f25 (f55 (f56 f57 f40) ?v0) ?v1) f1) (=> (=> (= ?v1 ?v0) false) false))))
(assert (forall ((?v0 S20)) (= (f25 (f55 (f56 f57 f40) ?v0) ?v0) f1)))
(assert (forall ((?v0 S9) (?v1 S20) (?v2 S20) (?v3 S20)) (let ((?v_0 (f55 (f56 f57 ?v0) ?v1))) (=> (= (f25 ?v_0 ?v2) f1) (=> (= (f25 ?v_0 ?v3) f1) (= ?v3 ?v2))))))
(assert (forall ((?v0 S9) (?v1 S9) (?v2 S21) (?v3 S9) (?v4 S9)) (not (= (f58 (f59 f60 ?v0) ?v1) (f58 (f59 (f61 f62 ?v2) ?v3) ?v4)))))
(assert (forall ((?v0 S21) (?v1 S9) (?v2 S9) (?v3 S9) (?v4 S9)) (not (= (f58 (f59 (f61 f62 ?v0) ?v1) ?v2) (f58 (f59 f60 ?v3) ?v4)))))
(assert (forall ((?v0 S9) (?v1 S9) (?v2 S9) (?v3 S9)) (= (= (f58 (f59 f60 ?v0) ?v1) (f58 (f59 f60 ?v2) ?v3)) (and (= ?v0 ?v2) (= ?v1 ?v3)))))
(assert (forall ((?v0 S21) (?v1 S9) (?v2 S9) (?v3 S21) (?v4 S9) (?v5 S9)) (= (= (f58 (f59 (f61 f62 ?v0) ?v1) ?v2) (f58 (f59 (f61 f62 ?v3) ?v4) ?v5)) (and (= ?v0 ?v3) (and (= ?v1 ?v4) (= ?v2 ?v5))))))
(assert (forall ((?v0 S9) (?v1 S20) (?v2 S5) (?v3 S20)) (=> (= (f25 (f27 (f28 (f29 f30 ?v0) ?v1) ?v2) ?v3) f1) (= (f25 (f55 (f56 f57 ?v0) ?v1) ?v3) f1))))
(assert (forall ((?v0 S9) (?v1 S20) (?v2 S20)) (= (= (f25 (f55 (f56 f57 ?v0) ?v1) ?v2) f1) (exists ((?v3 S5)) (= (f25 (f27 (f28 (f29 f30 ?v0) ?v1) ?v3) ?v2) f1)))))
(assert (forall ((?v0 S9) (?v1 S9) (?v2 S21)) (=> (= (f48 f49 ?v0) f1) (=> (= (f48 f49 ?v1) f1) (= (f48 f49 (f58 (f59 (f61 f62 ?v2) ?v0) ?v1)) f1)))))
(assert (forall ((?v0 S12) (?v1 S21) (?v2 S9) (?v3 S9)) (not (= (f12 f13 ?v0) (f58 (f59 (f61 f62 ?v1) ?v2) ?v3)))))
(assert (forall ((?v0 S21) (?v1 S9) (?v2 S9) (?v3 S12)) (not (= (f58 (f59 (f61 f62 ?v0) ?v1) ?v2) (f12 f13 ?v3)))))
(assert (forall ((?v0 S9) (?v1 S9)) (=> (= (f48 f49 ?v0) f1) (=> (= (f48 f49 ?v1) f1) (= (f48 f49 (f58 (f59 f60 ?v0) ?v1)) f1)))))
(assert (forall ((?v0 S12) (?v1 S9) (?v2 S9)) (not (= (f12 f13 ?v0) (f58 (f59 f60 ?v1) ?v2)))))
(assert (forall ((?v0 S9) (?v1 S9) (?v2 S12)) (not (= (f58 (f59 f60 ?v0) ?v1) (f12 f13 ?v2)))))
(assert (forall ((?v0 S29) (?v1 S30) (?v2 S21) (?v3 S9) (?v4 S9)) (not (= (f42 (f43 f44 ?v0) ?v1) (f58 (f59 (f61 f62 ?v2) ?v3) ?v4)))))
(assert (forall ((?v0 S21) (?v1 S9) (?v2 S9) (?v3 S29) (?v4 S30)) (not (= (f58 (f59 (f61 f62 ?v0) ?v1) ?v2) (f42 (f43 f44 ?v3) ?v4)))))
(assert (forall ((?v0 S29) (?v1 S12) (?v2 S30) (?v3 S21) (?v4 S9) (?v5 S9)) (not (= (f42 (f45 (f46 f47 ?v0) ?v1) ?v2) (f58 (f59 (f61 f62 ?v3) ?v4) ?v5)))))
(assert (forall ((?v0 S21) (?v1 S9) (?v2 S9) (?v3 S29) (?v4 S12) (?v5 S30)) (not (= (f58 (f59 (f61 f62 ?v0) ?v1) ?v2) (f42 (f45 (f46 f47 ?v3) ?v4) ?v5)))))
(assert (forall ((?v0 S21) (?v1 S9) (?v2 S9)) (not (= f40 (f58 (f59 (f61 f62 ?v0) ?v1) ?v2)))))
(assert (forall ((?v0 S21) (?v1 S9) (?v2 S9)) (not (= (f58 (f59 (f61 f62 ?v0) ?v1) ?v2) f40))))
(assert (forall ((?v0 S29) (?v1 S30) (?v2 S9) (?v3 S9)) (not (= (f42 (f43 f44 ?v0) ?v1) (f58 (f59 f60 ?v2) ?v3)))))
(assert (forall ((?v0 S9) (?v1 S9) (?v2 S29) (?v3 S30)) (not (= (f58 (f59 f60 ?v0) ?v1) (f42 (f43 f44 ?v2) ?v3)))))
(assert (forall ((?v0 S9) (?v1 S9) (?v2 S29) (?v3 S12) (?v4 S30)) (not (= (f58 (f59 f60 ?v0) ?v1) (f42 (f45 (f46 f47 ?v2) ?v3) ?v4)))))
(assert (forall ((?v0 S29) (?v1 S12) (?v2 S30) (?v3 S9) (?v4 S9)) (not (= (f42 (f45 (f46 f47 ?v0) ?v1) ?v2) (f58 (f59 f60 ?v3) ?v4)))))
(assert (forall ((?v0 S9) (?v1 S9)) (not (= f40 (f58 (f59 f60 ?v0) ?v1)))))
(assert (forall ((?v0 S9) (?v1 S9)) (not (= (f58 (f59 f60 ?v0) ?v1) f40))))
(assert (forall ((?v0 S9) (?v1 S9) (?v2 S20) (?v3 S20)) (=> (= (f25 (f55 (f56 f57 (f58 (f59 f60 ?v0) ?v1)) ?v2) ?v3) f1) (=> (forall ((?v4 S20)) (=> (= (f25 (f55 (f56 f57 ?v0) ?v2) ?v4) f1) (=> (= (f25 (f55 (f56 f57 ?v1) ?v4) ?v3) f1) false))) false))))
(assert (forall ((?v0 S9) (?v1 S9) (?v2 S20) (?v3 S5) (?v4 S20)) (=> (= (f25 (f27 (f28 (f29 f30 (f58 (f59 f60 ?v0) ?v1)) ?v2) ?v3) ?v4) f1) (=> (forall ((?v5 S20)) (=> (= (f25 (f27 (f28 (f29 f30 ?v0) ?v2) ?v3) ?v5) f1) (=> (= (f25 (f27 (f28 (f29 f30 ?v1) ?v5) ?v3) ?v4) f1) false))) false))))
(assert (forall ((?v0 S9) (?v1 S20) (?v2 S20)) (=> (= (f25 (f55 (f56 f57 ?v0) ?v1) ?v2) f1) (exists ((?v3 S5)) (= (f25 (f27 (f28 (f29 f30 ?v0) ?v1) ?v3) ?v2) f1)))))
(assert (forall ((?v0 S12) (?v1 S20) (?v2 S20)) (=> (= (f25 (f55 (f56 f57 (f12 f13 ?v0)) ?v1) ?v2) f1) (=> (=> (= (f25 (f55 (f56 f57 (f63 f64 (f65 f66 ?v0))) ?v1) ?v2) f1) false) false))))
(assert (forall ((?v0 S12) (?v1 S20) (?v2 S20)) (=> (= (f25 (f55 (f56 f57 (f63 f64 (f65 f66 ?v0))) ?v1) ?v2) f1) (= (f25 (f55 (f56 f57 (f12 f13 ?v0)) ?v1) ?v2) f1))))
(assert (forall ((?v0 S47) (?v1 S30) (?v2 S9)) (=> (= (f48 f49 (f58 (f67 (f68 f69 ?v0) ?v1) ?v2)) f1) (=> (=> (= (f48 f49 ?v2) f1) false) false))))
(assert (forall ((?v0 S47) (?v1 S30) (?v2 S9) (?v3 S47) (?v4 S30) (?v5 S9)) (= (= (f58 (f67 (f68 f69 ?v0) ?v1) ?v2) (f58 (f67 (f68 f69 ?v3) ?v4) ?v5)) (and (= ?v0 ?v3) (and (= ?v1 ?v4) (= ?v2 ?v5))))))
(assert (forall ((?v0 S9) (?v1 S47) (?v2 S30)) (=> (= (f48 f49 ?v0) f1) (= (f48 f49 (f58 (f67 (f68 f69 ?v1) ?v2) ?v0)) f1))))
(assert (forall ((?v0 S47) (?v1 S30) (?v2 S9) (?v3 S12)) (not (= (f58 (f67 (f68 f69 ?v0) ?v1) ?v2) (f12 f13 ?v3)))))
(assert (forall ((?v0 S12) (?v1 S47) (?v2 S30) (?v3 S9)) (not (= (f12 f13 ?v0) (f58 (f67 (f68 f69 ?v1) ?v2) ?v3)))))
(assert (forall ((?v0 S47) (?v1 S30) (?v2 S9) (?v3 S21) (?v4 S9) (?v5 S9)) (not (= (f58 (f67 (f68 f69 ?v0) ?v1) ?v2) (f58 (f59 (f61 f62 ?v3) ?v4) ?v5)))))
(assert (forall ((?v0 S21) (?v1 S9) (?v2 S9) (?v3 S47) (?v4 S30) (?v5 S9)) (not (= (f58 (f59 (f61 f62 ?v0) ?v1) ?v2) (f58 (f67 (f68 f69 ?v3) ?v4) ?v5)))))
(assert (forall ((?v0 S47) (?v1 S30) (?v2 S9) (?v3 S29) (?v4 S12) (?v5 S30)) (not (= (f58 (f67 (f68 f69 ?v0) ?v1) ?v2) (f42 (f45 (f46 f47 ?v3) ?v4) ?v5)))))
(assert (forall ((?v0 S29) (?v1 S12) (?v2 S30) (?v3 S47) (?v4 S30) (?v5 S9)) (not (= (f42 (f45 (f46 f47 ?v0) ?v1) ?v2) (f58 (f67 (f68 f69 ?v3) ?v4) ?v5)))))
(assert (forall ((?v0 S47) (?v1 S30) (?v2 S9) (?v3 S29) (?v4 S30)) (not (= (f58 (f67 (f68 f69 ?v0) ?v1) ?v2) (f42 (f43 f44 ?v3) ?v4)))))
(assert (forall ((?v0 S29) (?v1 S30) (?v2 S47) (?v3 S30) (?v4 S9)) (not (= (f42 (f43 f44 ?v0) ?v1) (f58 (f67 (f68 f69 ?v2) ?v3) ?v4)))))
(assert (forall ((?v0 S47) (?v1 S30) (?v2 S9) (?v3 S9) (?v4 S9)) (not (= (f58 (f67 (f68 f69 ?v0) ?v1) ?v2) (f58 (f59 f60 ?v3) ?v4)))))
(assert (forall ((?v0 S9) (?v1 S9) (?v2 S47) (?v3 S30) (?v4 S9)) (not (= (f58 (f59 f60 ?v0) ?v1) (f58 (f67 (f68 f69 ?v2) ?v3) ?v4)))))
(assert (forall ((?v0 S47) (?v1 S30) (?v2 S9)) (not (= (f58 (f67 (f68 f69 ?v0) ?v1) ?v2) f40))))
(assert (forall ((?v0 S47) (?v1 S30) (?v2 S9)) (not (= f40 (f58 (f67 (f68 f69 ?v0) ?v1) ?v2)))))
(assert (forall ((?v0 S12) (?v1 S20) (?v2 S5) (?v3 S20)) (=> (= (f25 (f27 (f28 (f29 f30 (f63 f64 (f65 f66 ?v0))) ?v1) ?v2) ?v3) f1) (= (f25 (f27 (f28 (f29 f30 (f12 f13 ?v0)) ?v1) (f37 f70 ?v2)) ?v3) f1))))
(assert (forall ((?v0 S12) (?v1 S20) (?v2 S5) (?v3 S20)) (=> (= (f25 (f27 (f28 (f29 f30 (f12 f13 ?v0)) ?v1) ?v2) ?v3) f1) (=> (forall ((?v4 S5)) (=> (= ?v2 (f37 f70 ?v4)) (=> (= (f25 (f27 (f28 (f29 f30 (f63 f64 (f65 f66 ?v0))) ?v1) ?v4) ?v3) f1) false))) false))))
(assert (forall ((?v0 S12)) (=> (not (= (f65 f66 ?v0) f71)) (= (f48 f49 (f12 f13 ?v0)) f1))))
(assert (forall ((?v0 S12)) (=> (= (f48 f49 (f12 f13 ?v0)) f1) (=> (forall ((?v1 S9)) (=> (= (f65 f66 ?v0) (f72 f73 ?v1)) false)) false))))
(assert (forall ((?v0 S9)) (=> (=> (= ?v0 f40) false) (=> (forall ((?v1 S29) (?v2 S30)) (=> (= ?v0 (f42 (f43 f44 ?v1) ?v2)) false)) (=> (forall ((?v1 S47) (?v2 S30) (?v3 S9)) (=> (= ?v0 (f58 (f67 (f68 f69 ?v1) ?v2) ?v3)) false)) (=> (forall ((?v1 S9) (?v2 S9)) (=> (= ?v0 (f58 (f59 f60 ?v1) ?v2)) false)) (=> (forall ((?v1 S21) (?v2 S9) (?v3 S9)) (=> (= ?v0 (f58 (f59 (f61 f62 ?v1) ?v2) ?v3)) false)) (=> (forall ((?v1 S21) (?v2 S9)) (=> (= ?v0 (f58 (f74 f75 ?v1) ?v2)) false)) (=> (forall ((?v1 S12)) (=> (= ?v0 (f12 f13 ?v1)) false)) (=> (forall ((?v1 S29) (?v2 S12) (?v3 S30)) (=> (= ?v0 (f42 (f45 (f46 f47 ?v1) ?v2) ?v3)) false)) false))))))))))
(assert (forall ((?v0 S21) (?v1 S20) (?v2 S9) (?v3 S5) (?v4 S20) (?v5 S20)) (let ((?v_0 (f29 f30 (f58 (f74 f75 ?v0) ?v2)))) (=> (= (f25 ?v0 ?v1) f1) (=> (= (f25 (f27 (f28 (f29 f30 ?v2) ?v1) ?v3) ?v4) f1) (=> (= (f25 (f27 (f28 ?v_0 ?v4) ?v3) ?v5) f1) (= (f25 (f27 (f28 ?v_0 ?v1) ?v3) ?v5) f1)))))))
(assert (forall ((?v0 S21) (?v1 S20) (?v2 S9) (?v3 S5)) (=> (not (= (f25 ?v0 ?v1) f1)) (= (f25 (f27 (f28 (f29 f30 (f58 (f74 f75 ?v0) ?v2)) ?v1) ?v3) ?v1) f1))))
(assert (forall ((?v0 S21) (?v1 S20) (?v2 S9)) (=> (not (= (f25 ?v0 ?v1) f1)) (= (f25 (f55 (f56 f57 (f58 (f74 f75 ?v0) ?v2)) ?v1) ?v1) f1))))
(assert (forall ((?v0 S21) (?v1 S20) (?v2 S9) (?v3 S20) (?v4 S20)) (let ((?v_0 (f56 f57 (f58 (f74 f75 ?v0) ?v2)))) (=> (= (f25 ?v0 ?v1) f1) (=> (= (f25 (f55 (f56 f57 ?v2) ?v1) ?v3) f1) (=> (= (f25 (f55 ?v_0 ?v3) ?v4) f1) (= (f25 (f55 ?v_0 ?v1) ?v4) f1)))))))
(assert (forall ((?v0 S21) (?v1 S9)) (=> (= (f48 f49 (f58 (f74 f75 ?v0) ?v1)) f1) (=> (=> (= (f48 f49 ?v1) f1) false) false))))
(assert (forall ((?v0 S21) (?v1 S9) (?v2 S21) (?v3 S9)) (= (= (f58 (f74 f75 ?v0) ?v1) (f58 (f74 f75 ?v2) ?v3)) (and (= ?v0 ?v2) (= ?v1 ?v3)))))
(assert (forall ((?v0 S9) (?v1 S20) (?v2 S5) (?v3 S20)) (let ((?v_0 (f28 (f29 f30 ?v0) ?v1))) (=> (= (f25 (f27 ?v_0 ?v2) ?v3) f1) (= (f25 (f27 ?v_0 (f37 f70 ?v2)) ?v3) f1)))))
(assert (forall ((?v0 S9) (?v1 S21)) (=> (= (f48 f49 ?v0) f1) (= (f48 f49 (f58 (f74 f75 ?v1) ?v0)) f1))))
(assert (forall ((?v0 S12) (?v1 S21) (?v2 S9)) (not (= (f12 f13 ?v0) (f58 (f74 f75 ?v1) ?v2)))))
(assert (forall ((?v0 S21) (?v1 S9) (?v2 S12)) (not (= (f58 (f74 f75 ?v0) ?v1) (f12 f13 ?v2)))))
(assert (forall ((?v0 S21) (?v1 S9) (?v2 S21) (?v3 S9) (?v4 S9)) (not (= (f58 (f74 f75 ?v0) ?v1) (f58 (f59 (f61 f62 ?v2) ?v3) ?v4)))))
(assert (forall ((?v0 S21) (?v1 S9) (?v2 S9) (?v3 S21) (?v4 S9)) (not (= (f58 (f59 (f61 f62 ?v0) ?v1) ?v2) (f58 (f74 f75 ?v3) ?v4)))))
(assert (forall ((?v0 S9) (?v1 S9) (?v2 S21) (?v3 S9)) (not (= (f58 (f59 f60 ?v0) ?v1) (f58 (f74 f75 ?v2) ?v3)))))
(assert (forall ((?v0 S21) (?v1 S9) (?v2 S9) (?v3 S9)) (not (= (f58 (f74 f75 ?v0) ?v1) (f58 (f59 f60 ?v2) ?v3)))))
(assert (forall ((?v0 S29) (?v1 S30) (?v2 S21) (?v3 S9)) (not (= (f42 (f43 f44 ?v0) ?v1) (f58 (f74 f75 ?v2) ?v3)))))
(assert (forall ((?v0 S21) (?v1 S9) (?v2 S29) (?v3 S30)) (not (= (f58 (f74 f75 ?v0) ?v1) (f42 (f43 f44 ?v2) ?v3)))))
(assert (forall ((?v0 S21) (?v1 S9) (?v2 S29) (?v3 S12) (?v4 S30)) (not (= (f58 (f74 f75 ?v0) ?v1) (f42 (f45 (f46 f47 ?v2) ?v3) ?v4)))))
(assert (forall ((?v0 S29) (?v1 S12) (?v2 S30) (?v3 S21) (?v4 S9)) (not (= (f42 (f45 (f46 f47 ?v0) ?v1) ?v2) (f58 (f74 f75 ?v3) ?v4)))))
(assert (forall ((?v0 S21) (?v1 S9) (?v2 S47) (?v3 S30) (?v4 S9)) (not (= (f58 (f74 f75 ?v0) ?v1) (f58 (f67 (f68 f69 ?v2) ?v3) ?v4)))))
(assert (forall ((?v0 S47) (?v1 S30) (?v2 S9) (?v3 S21) (?v4 S9)) (not (= (f58 (f67 (f68 f69 ?v0) ?v1) ?v2) (f58 (f74 f75 ?v3) ?v4)))))
(assert (forall ((?v0 S21) (?v1 S9)) (not (= f40 (f58 (f74 f75 ?v0) ?v1)))))
(assert (forall ((?v0 S21) (?v1 S9)) (not (= (f58 (f74 f75 ?v0) ?v1) f40))))
(assert (forall ((?v0 S12) (?v1 S9)) (=> (= f76 f1) (=> (= (f65 f66 ?v0) (f72 f73 ?v1)) (= (f48 f49 ?v1) f1)))))
(assert (forall ((?v0 S21) (?v1 S9) (?v2 S20) (?v3 S20)) (=> (= (f25 (f55 (f56 f57 (f58 (f74 f75 ?v0) ?v1)) ?v2) ?v3) f1) (=> (=> (= ?v3 ?v2) (=> (not (= (f25 ?v0 ?v2) f1)) false)) (=> (forall ((?v4 S20)) (=> (= (f25 ?v0 ?v2) f1) (=> (= (f25 (f55 (f56 f57 ?v1) ?v2) ?v4) f1) (=> (= (f25 (f55 (f56 f57 (f58 (f74 f75 ?v0) ?v1)) ?v4) ?v3) f1) false)))) false)))))
(assert (forall ((?v0 S21) (?v1 S9) (?v2 S20) (?v3 S5) (?v4 S20)) (=> (= (f25 (f27 (f28 (f29 f30 (f58 (f74 f75 ?v0) ?v1)) ?v2) ?v3) ?v4) f1) (=> (=> (= ?v4 ?v2) (=> (not (= (f25 ?v0 ?v2) f1)) false)) (=> (forall ((?v5 S20)) (=> (= (f25 ?v0 ?v2) f1) (=> (= (f25 (f27 (f28 (f29 f30 ?v1) ?v2) ?v3) ?v5) f1) (=> (= (f25 (f27 (f28 (f29 f30 (f58 (f74 f75 ?v0) ?v1)) ?v5) ?v3) ?v4) f1) false)))) false)))))
(assert (forall ((?v0 S26)) (= (f79 (f77 f78 ?v0) f71) f6)))
(assert (forall ((?v0 S9)) (= (f63 f64 (f72 f73 ?v0)) ?v0)))
(assert (forall ((?v0 S9)) (not (= f71 (f72 f73 ?v0)))))
(assert (forall ((?v0 S9)) (not (= (f72 f73 ?v0) f71))))
(assert (forall ((?v0 S9) (?v1 S9)) (= (= (f72 f73 ?v0) (f72 f73 ?v1)) (= ?v0 ?v1))))
(assert (forall ((?v0 S45)) (= (not (= ?v0 f71)) (exists ((?v1 S9)) (= ?v0 (f72 f73 ?v1))))))
(assert (forall ((?v0 S45)) (= (forall ((?v1 S9)) (not (= ?v0 (f72 f73 ?v1)))) (= ?v0 f71))))
(assert (forall ((?v0 S45)) (=> (=> (= ?v0 f71) false) (=> (forall ((?v1 S9)) (=> (= ?v0 (f72 f73 ?v1)) false)) false))))
(assert (forall ((?v0 S9)) (= (f79 f80 (f72 f73 ?v0)) f6)))
(assert (= (f79 f80 f71) f6))
(assert (forall ((?v0 S5)) (not (= f6 (f37 f70 ?v0)))))
(assert (forall ((?v0 S5)) (not (= f6 (f37 f70 ?v0)))))
(assert (forall ((?v0 S5)) (not (= (f37 f70 ?v0) f6))))
(assert (forall ((?v0 S5) (?v1 S5)) (=> (= (f37 f70 ?v0) (f37 f70 ?v1)) (= ?v0 ?v1))))
(assert (forall ((?v0 S5) (?v1 S5)) (= (= (f37 f70 ?v0) (f37 f70 ?v1)) (= ?v0 ?v1))))
(assert (forall ((?v0 S5)) (not (= (f37 f70 ?v0) ?v0))))
(assert (forall ((?v0 S5)) (not (= ?v0 (f37 f70 ?v0)))))
(assert (forall ((?v0 S5)) (=> (= (f37 f70 ?v0) f6) false)))
(assert (forall ((?v0 S5)) (=> (= f6 (f37 f70 ?v0)) false)))
(assert (forall ((?v0 S5)) (not (= (f37 f70 ?v0) f6))))
(assert (forall ((?v0 S5)) (=> (=> (= ?v0 f6) false) (=> (forall ((?v1 S5)) (=> (= ?v0 (f37 f70 ?v1)) false)) false))))
(assert (forall ((?v0 S54) (?v1 S5)) (=> (= (f81 ?v0 ?v1) f1) (=> (forall ((?v2 S5)) (=> (= (f81 ?v0 (f37 f70 ?v2)) f1) (= (f81 ?v0 ?v2) f1))) (= (f81 ?v0 f6) f1)))))
(assert (forall ((?v0 S54) (?v1 S5)) (=> (= (f81 ?v0 f6) f1) (=> (forall ((?v2 S5)) (=> (= (f81 ?v0 ?v2) f1) (= (f81 ?v0 (f37 f70 ?v2)) f1))) (= (f81 ?v0 ?v1) f1)))))
(assert (forall ((?v0 S5)) (=> (not (= ?v0 f6)) (exists ((?v1 S5)) (= ?v0 (f37 f70 ?v1))))))
(assert (forall ((?v0 S9)) (= (= (f48 f49 ?v0) f1) (or (= ?v0 f40) (or (exists ((?v1 S29) (?v2 S30)) (= ?v0 (f42 (f43 f44 ?v1) ?v2))) (or (exists ((?v1 S9) (?v2 S47) (?v3 S30)) (and (= ?v0 (f58 (f67 (f68 f69 ?v2) ?v3) ?v1)) (= (f48 f49 ?v1) f1))) (or (exists ((?v1 S9) (?v2 S9)) (and (= ?v0 (f58 (f59 f60 ?v1) ?v2)) (and (= (f48 f49 ?v1) f1) (= (f48 f49 ?v2) f1)))) (or (exists ((?v1 S9) (?v2 S9) (?v3 S21)) (and (= ?v0 (f58 (f59 (f61 f62 ?v3) ?v1) ?v2)) (and (= (f48 f49 ?v1) f1) (= (f48 f49 ?v2) f1)))) (or (exists ((?v1 S9) (?v2 S21)) (and (= ?v0 (f58 (f74 f75 ?v2) ?v1)) (= (f48 f49 ?v1) f1))) (or (exists ((?v1 S12)) (and (= ?v0 (f12 f13 ?v1)) (not (= (f65 f66 ?v1) f71)))) (exists ((?v1 S12) (?v2 S29) (?v3 S30)) (and (= ?v0 (f42 (f45 (f46 f47 ?v2) ?v1) ?v3)) (= (f48 f49 (f12 f13 ?v1)) f1)))))))))))))
(assert (forall ((?v0 S26) (?v1 S9)) (= (f79 (f77 f78 ?v0) (f72 f73 ?v1)) (f37 (f82 f83 (f32 ?v0 ?v1)) (f37 f70 f6)))))
(assert (forall ((?v0 S25)) (= (f84 (f85 f86 ?v0) f31) ?v0)))
(assert (forall ((?v0 S5)) (= (f37 (f82 f83 ?v0) f6) ?v0)))
(assert (forall ((?v0 S25)) (= (f84 (f85 f86 ?v0) f31) ?v0)))
(assert (forall ((?v0 S5)) (= (f37 (f82 f83 ?v0) f6) ?v0)))
(assert (forall ((?v0 S25)) (= (= f31 (f84 (f85 f86 ?v0) ?v0)) (= ?v0 f31))))
(assert (forall ((?v0 S25)) (= (f84 (f85 f86 f31) ?v0) ?v0)))
(assert (forall ((?v0 S5)) (= (f37 (f82 f83 f6) ?v0) ?v0)))
(assert (forall ((?v0 S25)) (= (f84 (f85 f86 f31) ?v0) ?v0)))
(assert (forall ((?v0 S5)) (= (f37 (f82 f83 f6) ?v0) ?v0)))
(assert (forall ((?v0 S25) (?v1 S25) (?v2 S25)) (let ((?v_0 (f85 f86 ?v0))) (= (f84 (f85 f86 (f84 ?v_0 ?v1)) ?v2) (f84 ?v_0 (f84 (f85 f86 ?v1) ?v2))))))
(assert (forall ((?v0 S5) (?v1 S5) (?v2 S5)) (let ((?v_0 (f82 f83 ?v0))) (= (f37 (f82 f83 (f37 ?v_0 ?v1)) ?v2) (f37 ?v_0 (f37 (f82 f83 ?v1) ?v2))))))
(assert (forall ((?v0 S25) (?v1 S25) (?v2 S25)) (let ((?v_0 (f85 f86 ?v0))) (= (= (f84 ?v_0 ?v1) (f84 ?v_0 ?v2)) (= ?v1 ?v2)))))
(assert (forall ((?v0 S5) (?v1 S5) (?v2 S5)) (let ((?v_0 (f82 f83 ?v0))) (= (= (f37 ?v_0 ?v1) (f37 ?v_0 ?v2)) (= ?v1 ?v2)))))
(assert (forall ((?v0 S25) (?v1 S25) (?v2 S25)) (= (= (f84 (f85 f86 ?v0) ?v1) (f84 (f85 f86 ?v2) ?v1)) (= ?v0 ?v2))))
(assert (forall ((?v0 S5) (?v1 S5) (?v2 S5)) (= (= (f37 (f82 f83 ?v0) ?v1) (f37 (f82 f83 ?v2) ?v1)) (= ?v0 ?v2))))
(assert (forall ((?v0 S25) (?v1 S25) (?v2 S25)) (let ((?v_0 (f85 f86 ?v0))) (=> (= (f84 ?v_0 ?v1) (f84 ?v_0 ?v2)) (= ?v1 ?v2)))))
(assert (forall ((?v0 S5) (?v1 S5) (?v2 S5)) (let ((?v_0 (f82 f83 ?v0))) (=> (= (f37 ?v_0 ?v1) (f37 ?v_0 ?v2)) (= ?v1 ?v2)))))
(assert (forall ((?v0 S25) (?v1 S25) (?v2 S25)) (let ((?v_0 (f85 f86 ?v0))) (=> (= (f84 ?v_0 ?v1) (f84 ?v_0 ?v2)) (= ?v1 ?v2)))))
(assert (forall ((?v0 S5) (?v1 S5) (?v2 S5)) (let ((?v_0 (f82 f83 ?v0))) (=> (= (f37 ?v_0 ?v1) (f37 ?v_0 ?v2)) (= ?v1 ?v2)))))
(assert (forall ((?v0 S25) (?v1 S25) (?v2 S25)) (=> (= (f84 (f85 f86 ?v0) ?v1) (f84 (f85 f86 ?v2) ?v1)) (= ?v0 ?v2))))
(assert (forall ((?v0 S5) (?v1 S5) (?v2 S5)) (=> (= (f37 (f82 f83 ?v0) ?v1) (f37 (f82 f83 ?v2) ?v1)) (= ?v0 ?v2))))
(assert (forall ((?v0 S5) (?v1 S5)) (= (f37 (f82 f83 (f37 f70 ?v0)) ?v1) (f37 (f82 f83 ?v0) (f37 f70 ?v1)))))
(assert (forall ((?v0 S5) (?v1 S5)) (= (f37 (f82 f83 (f37 f70 ?v0)) ?v1) (f37 f70 (f37 (f82 f83 ?v0) ?v1)))))
(assert (forall ((?v0 S5) (?v1 S5)) (let ((?v_0 (f82 f83 ?v0))) (= (f37 ?v_0 (f37 f70 ?v1)) (f37 f70 (f37 ?v_0 ?v1))))))
(assert (forall ((?v0 S5) (?v1 S5)) (= (f37 (f82 f83 ?v0) ?v1) (f37 (f82 f83 ?v1) ?v0))))
(assert (forall ((?v0 S5) (?v1 S5) (?v2 S5)) (let ((?v_1 (f82 f83 ?v0)) (?v_0 (f82 f83 ?v1))) (= (f37 ?v_1 (f37 ?v_0 ?v2)) (f37 ?v_0 (f37 ?v_1 ?v2))))))
(assert (forall ((?v0 S5) (?v1 S5) (?v2 S5)) (let ((?v_0 (f82 f83 ?v0))) (= (f37 (f82 f83 (f37 ?v_0 ?v1)) ?v2) (f37 ?v_0 (f37 (f82 f83 ?v1) ?v2))))))
(assert (forall ((?v0 S5) (?v1 S5) (?v2 S5)) (let ((?v_0 (f82 f83 ?v0))) (= (= (f37 ?v_0 ?v1) (f37 ?v_0 ?v2)) (= ?v1 ?v2)))))
(assert (forall ((?v0 S5) (?v1 S5) (?v2 S5)) (= (= (f37 (f82 f83 ?v0) ?v1) (f37 (f82 f83 ?v2) ?v1)) (= ?v0 ?v2))))
(assert (forall ((?v0 S5)) (= (f37 (f82 f83 f6) ?v0) ?v0)))
(assert (forall ((?v0 S5)) (= (f37 (f82 f83 ?v0) f6) ?v0)))
(assert (forall ((?v0 S5) (?v1 S5)) (= (= (f37 (f82 f83 ?v0) ?v1) f6) (and (= ?v0 f6) (= ?v1 f6)))))
(assert (forall ((?v0 S5) (?v1 S5)) (=> (= (f37 (f82 f83 ?v0) ?v1) ?v0) (= ?v1 f6))))
(assert (forall ((?v0 S5) (?v1 S5)) (let ((?v_0 (f37 f70 f6))) (= (= (f37 (f82 f83 ?v0) ?v1) ?v_0) (or (and (= ?v0 ?v_0) (= ?v1 f6)) (and (= ?v0 f6) (= ?v1 ?v_0)))))))
(assert (forall ((?v0 S5) (?v1 S5)) (let ((?v_0 (f37 f70 f6))) (= (= ?v_0 (f37 (f82 f83 ?v0) ?v1)) (or (and (= ?v0 ?v_0) (= ?v1 f6)) (and (= ?v0 f6) (= ?v1 ?v_0)))))))
(assert (forall ((?v0 S5)) (= (f37 f41 (f37 f70 ?v0)) (f37 (f82 f83 (f37 f41 ?v0)) (f37 f70 f6)))))
(assert (forall ((?v0 S5)) (= (f37 f38 (f37 f70 ?v0)) (f37 (f82 f83 (f37 f38 ?v0)) (f37 f70 f6)))))
(assert (forall ((?v0 S21) (?v1 S9)) (= (f32 f33 (f58 (f74 f75 ?v0) ?v1)) (f37 (f82 f83 (f32 f33 ?v1)) (f37 f70 f6)))))
(assert (forall ((?v0 S21) (?v1 S9)) (= (f32 f34 (f58 (f74 f75 ?v0) ?v1)) (f37 (f82 f83 (f32 f34 ?v1)) (f37 f70 f6)))))
(assert (forall ((?v0 S21) (?v1 S9) (?v2 S9)) (= (f32 f34 (f58 (f59 (f61 f62 ?v0) ?v1) ?v2)) (f37 (f82 f83 (f37 (f82 f83 (f32 f34 ?v1)) (f32 f34 ?v2))) (f37 f70 f6)))))
(assert (forall ((?v0 S21) (?v1 S9) (?v2 S9)) (= (f32 f33 (f58 (f59 (f61 f62 ?v0) ?v1) ?v2)) (f37 (f82 f83 (f37 (f82 f83 (f32 f33 ?v1)) (f32 f33 ?v2))) (f37 f70 f6)))))
(assert (forall ((?v0 S9) (?v1 S9)) (= (f32 f34 (f58 (f59 f60 ?v0) ?v1)) (f37 (f82 f83 (f37 (f82 f83 (f32 f34 ?v0)) (f32 f34 ?v1))) (f37 f70 f6)))))
(assert (forall ((?v0 S9) (?v1 S9)) (= (f32 f33 (f58 (f59 f60 ?v0) ?v1)) (f37 (f82 f83 (f37 (f82 f83 (f32 f33 ?v0)) (f32 f33 ?v1))) (f37 f70 f6)))))
(assert (forall ((?v0 S47) (?v1 S30) (?v2 S9)) (= (f32 f33 (f58 (f67 (f68 f69 ?v0) ?v1) ?v2)) (f37 (f82 f83 (f32 f33 ?v2)) (f37 f70 f6)))))
(assert (forall ((?v0 S47) (?v1 S30) (?v2 S9)) (= (f32 f34 (f58 (f67 (f68 f69 ?v0) ?v1) ?v2)) (f37 (f82 f83 (f32 f34 ?v2)) (f37 f70 f6)))))
(assert (forall ((?v0 S25)) (= (= (f84 (f85 f86 ?v0) ?v0) f31) (= ?v0 f31))))
(assert (forall ((?v0 S25) (?v1 S25)) (= (= ?v0 (f84 (f85 f86 ?v0) ?v1)) (= ?v1 f31))))
(assert (forall ((?v0 S5) (?v1 S5)) (= (= ?v0 (f37 (f82 f83 ?v0) ?v1)) (= ?v1 f6))))
(assert (forall ((?v0 S25)) (= (f84 (f85 f86 ?v0) f31) ?v0)))
(assert (forall ((?v0 S5)) (= (f37 (f82 f83 ?v0) f6) ?v0)))
(assert (forall ((?v0 S25) (?v1 S25)) (= (f84 (f85 f86 ?v0) ?v1) (f84 (f85 f86 ?v1) ?v0))))
(assert (forall ((?v0 S5) (?v1 S5)) (= (f37 (f82 f83 ?v0) ?v1) (f37 (f82 f83 ?v1) ?v0))))
(assert (forall ((?v0 S25) (?v1 S25) (?v2 S25)) (let ((?v_1 (f85 f86 ?v0)) (?v_0 (f85 f86 ?v1))) (= (f84 ?v_1 (f84 ?v_0 ?v2)) (f84 ?v_0 (f84 ?v_1 ?v2))))))
(assert (forall ((?v0 S5) (?v1 S5) (?v2 S5)) (let ((?v_1 (f82 f83 ?v0)) (?v_0 (f82 f83 ?v1))) (= (f37 ?v_1 (f37 ?v_0 ?v2)) (f37 ?v_0 (f37 ?v_1 ?v2))))))
(assert (forall ((?v0 S25) (?v1 S25) (?v2 S25)) (let ((?v_0 (f85 f86 ?v0))) (= (f84 ?v_0 (f84 (f85 f86 ?v1) ?v2)) (f84 (f85 f86 (f84 ?v_0 ?v1)) ?v2)))))
(assert (forall ((?v0 S5) (?v1 S5) (?v2 S5)) (let ((?v_0 (f82 f83 ?v0))) (= (f37 ?v_0 (f37 (f82 f83 ?v1) ?v2)) (f37 (f82 f83 (f37 ?v_0 ?v1)) ?v2)))))
(assert (forall ((?v0 S25) (?v1 S25) (?v2 S25)) (let ((?v_0 (f85 f86 ?v0))) (= (f84 (f85 f86 (f84 ?v_0 ?v1)) ?v2) (f84 ?v_0 (f84 (f85 f86 ?v1) ?v2))))))
(assert (forall ((?v0 S5) (?v1 S5) (?v2 S5)) (let ((?v_0 (f82 f83 ?v0))) (= (f37 (f82 f83 (f37 ?v_0 ?v1)) ?v2) (f37 ?v_0 (f37 (f82 f83 ?v1) ?v2))))))
(assert (forall ((?v0 S25) (?v1 S25) (?v2 S25)) (let ((?v_0 (f85 f86 ?v0))) (= (f84 (f85 f86 (f84 ?v_0 ?v1)) ?v2) (f84 (f85 f86 (f84 ?v_0 ?v2)) ?v1)))))
(assert (forall ((?v0 S5) (?v1 S5) (?v2 S5)) (let ((?v_0 (f82 f83 ?v0))) (= (f37 (f82 f83 (f37 ?v_0 ?v1)) ?v2) (f37 (f82 f83 (f37 ?v_0 ?v2)) ?v1)))))
(assert (forall ((?v0 S25) (?v1 S25) (?v2 S25) (?v3 S25)) (let ((?v_0 (f85 f86 ?v0))) (= (f84 (f85 f86 (f84 ?v_0 ?v1)) (f84 (f85 f86 ?v2) ?v3)) (f84 (f85 f86 (f84 ?v_0 ?v2)) (f84 (f85 f86 ?v1) ?v3))))))
(assert (forall ((?v0 S5) (?v1 S5) (?v2 S5) (?v3 S5)) (let ((?v_0 (f82 f83 ?v0))) (= (f37 (f82 f83 (f37 ?v_0 ?v1)) (f37 (f82 f83 ?v2) ?v3)) (f37 (f82 f83 (f37 ?v_0 ?v2)) (f37 (f82 f83 ?v1) ?v3))))))
(assert (forall ((?v0 S25)) (= (f84 (f85 f86 f31) ?v0) ?v0)))
(assert (forall ((?v0 S5)) (= (f37 (f82 f83 f6) ?v0) ?v0)))
(assert (forall ((?v0 S9)) (= (= (f87 f88 (f72 f73 ?v0)) f1) false)))
(assert (= (= (f87 f88 f71) f1) true))
(assert (forall ((?v0 S45)) (= (= (f87 f88 ?v0) f1) (= ?v0 f71))))
(check-sat)
(exit)
